p cnf 44 43
-2 0
-3 0
-4 0
-5 0
-6 0
-7 0
-8 0
-9 0
-10 0
-11 0
-12 0
-13 0
-14 0
-15 0
-16 0
-17 0
-18 0
-19 0
-20 0
-21 0
-22 0
1 0
-23 42 0
-23 40 0
-23 44 0
-23 36 0
-23 43 0
-23 29 0
-23 25 0
-23 33 0
-23 27 0
-23 41 0
-23 38 0
-23 39 0
-23 32 0
-23 28 0
-23 35 0
-23 37 0
-23 34 0
-23 30 0
-23 31 0
-23 26 0
23 0
a 2 0
